# Solution for model problem
# Objective value = 3
iir_master 1
idct_master 1
sink_master 1
src_master 1
src_slave 0
C_iir_src 0
C_idct_src 0
C_sink_src 0
map_src_CLIENT_PE0 0
map_src_CLIENT_PE1 0
map_src_CLIENT_PE2 0
map_src_CLIENT_PE3 0
map_src_CLIENT_PE4 0
map_src_CLIENT_PE5 0
map_src_CLIENT_PE6 0
map_src_CLIENT_PE7 1
map_src_CLIENT_PE8 0
map_src_CLIENT_PE9 0
map_src_CLIENT_PE10 0
map_src_CLIENT_PE11 0
map_src_CLIENT_PE12 0
map_src_CLIENT_PE13 0
map_src_CLIENT_PE14 0
map_src_CLIENT_PE15 0
map_src_CLIENT_PE16 0
dvfs_0_src 0
dvfs_1_src 0
dvfs_2_src 0
dvfs_3_src 0
dvfs_4_src 1
C_src_iir 0
C_src_idct 0
C_src_sink 0
iir_slave 0
C_idct_iir 0
C_sink_iir 0
map_iir_CLIENT_PE0 0
map_iir_CLIENT_PE2 0
map_iir_CLIENT_PE3 0
map_iir_CLIENT_PE4 0
map_iir_CLIENT_PE6 0
map_iir_CLIENT_PE7 0
map_iir_CLIENT_PE13 0
map_iir_CLIENT_PE14 1
dvfs_0_iir 0
dvfs_1_iir 0
dvfs_2_iir 0
dvfs_3_iir 0
dvfs_4_iir 1
C_iir_idct 0
C_iir_sink 0
idct_slave 0
C_sink_idct 0
map_idct_CLIENT_PE0 0
map_idct_CLIENT_PE2 0
map_idct_CLIENT_PE3 0
map_idct_CLIENT_PE4 0
map_idct_CLIENT_PE6 0
map_idct_CLIENT_PE7 0
map_idct_CLIENT_PE13 0
map_idct_CLIENT_PE14 1
dvfs_0_idct 0
dvfs_1_idct 0
dvfs_2_idct 0
dvfs_3_idct 0
dvfs_4_idct 1
C_idct_sink 0
sink_slave 0
map_sink_CLIENT_PE0 0
map_sink_CLIENT_PE1 0
map_sink_CLIENT_PE2 0
map_sink_CLIENT_PE3 0
map_sink_CLIENT_PE4 0
map_sink_CLIENT_PE5 0
map_sink_CLIENT_PE6 0
map_sink_CLIENT_PE7 0
map_sink_CLIENT_PE8 0
map_sink_CLIENT_PE9 0
map_sink_CLIENT_PE10 0
map_sink_CLIENT_PE11 0
map_sink_CLIENT_PE12 0
map_sink_CLIENT_PE13 0
map_sink_CLIENT_PE14 0
map_sink_CLIENT_PE15 0
map_sink_CLIENT_PE16 1
dvfs_0_sink 0
dvfs_1_sink 0
dvfs_2_sink 0
dvfs_3_sink 0
dvfs_4_sink 1
sl_0_a1_01 1
sl_1_a1_01 0
sl_2_a1_01 0
sl_3_a1_01 0
sl_4_a1_01 0
sl_5_a1_01 0
sl_6_a1_01 0
sl_7_a1_01 0
sl_8_a1_01 0
sl_9_a1_01 0
hop_1_a1_01 1
hop_2_a1_01 0
hop_3_a1_01 0
hop_4_a1_01 0
hop_5_a1_01 0
hop_6_a1_01 0
hop_7_a1_01 0
hop_8_a1_01 0
hop_9_a1_01 0
hop_10_a1_01 0
hop_11_a1_01 0
hop_12_a1_01 0
hop_13_a1_01 0
hop_14_a1_01 0
sl_0_a1_12 1
sl_1_a1_12 0
sl_2_a1_12 0
sl_3_a1_12 0
sl_4_a1_12 0
sl_5_a1_12 0
sl_6_a1_12 0
sl_7_a1_12 0
sl_8_a1_12 0
sl_9_a1_12 0
hop_1_a1_12 1
hop_2_a1_12 0
hop_3_a1_12 0
hop_4_a1_12 0
hop_5_a1_12 0
hop_6_a1_12 0
hop_7_a1_12 0
hop_8_a1_12 0
hop_9_a1_12 0
hop_10_a1_12 0
hop_11_a1_12 0
hop_12_a1_12 0
hop_13_a1_12 0
hop_14_a1_12 0
sl_0_a1_23 1
sl_1_a1_23 0
sl_2_a1_23 0
sl_3_a1_23 0
sl_4_a1_23 0
sl_5_a1_23 0
sl_6_a1_23 0
sl_7_a1_23 0
sl_8_a1_23 0
sl_9_a1_23 0
hop_1_a1_23 1
hop_2_a1_23 0
hop_3_a1_23 0
hop_4_a1_23 0
hop_5_a1_23 0
hop_6_a1_23 0
hop_7_a1_23 0
hop_8_a1_23 0
hop_9_a1_23 0
hop_10_a1_23 0
hop_11_a1_23 0
hop_12_a1_23 0
hop_13_a1_23 0
hop_14_a1_23 0
